MinimizeInequalities_First.lp
Minimize
z0 + z1 + z2 + z3 + z4 + z5 + z6 + z7 + z8 + z9 + z10 + z11 + z12 + z13 + z14 + z15 + z16 + z17 + z18 + z19 + z20 + z21 + z22 + z23 + z24 + z25 + z26 + z27 + z28 + z29 + z30 + z31 + z32 + z33 + z34 + z35 + z36 + z37 + z38 + z39 + z40 + z41 + z42 + z43 + z44 + z45 + z46 + z47 + z48 + z49 + z50 + z51 + z52 + z53 + z54 + z55 + z56 + z57 + z58 + z59 + z60 + z61 + z62 + z63 + z64 + z65 + z66 + z67 + z68 + z69 + z70 + z71 + z72 + z73 + z74 + z75 + z76 + z77 + z78 + z79 + z80 + z81 + z82 + z83 + z84 + z85 + z86 + z87 + z88 + z89 + z90 + z91 + z92 + z93 + z94 + z95 + z96 + z97 + z98 + z99 + z100 + z101 + z102 + z103 + z104 + z105 + z106 + z107 + z108 + z109 + z110 + z111 + z112 + z113 + z114 + z115 + z116 + z117 + z118 + z119 + z120 + z121 + z122 + z123 + z124 + z125 + z126 + z127 + z128 + z129 + z130 + z131 + z132 + z133 + z134 + z135 + z136 + z137 + z138 + z139 + z140 + z141 + z142 + z143 + z144 + z145 + z146 + z147 + z148 + z149 + z150 + z151 + z152 + z153 + z154 + z155 + z156 + z157 + z158 + z159 + z160 + z161 + z162 + z163 + z164 + z165 + z166 + z167 + z168 + z169 + z170 + z171 + z172 + z173 + z174 + z175 + z176 + z177 + z178 + z179 + z180 + z181 + z182 + z183 + z184 + z185 + z186 + z187 + z188 + z189 + z190 + z191 + z192 + z193 + z194 + z195 + z196 + z197 + z198 + z199 + z200 + z201 + z202 + z203 + z204 + z205 + z206 + z207 + z208 + z209 + z210 + z211 + z212 + z213 + z214 + z215 + z216 + z217 + z218 + z219 + z220 + z221 + z222 + z223 + z224 + z225 + z226 + z227 + z228 + z229 + z230 + z231 + z232 + z233 + z234 + z235 + z236 + z237 + z238


Subject To
z72 + z79 + z81 + z82 + z87 + z93 + z134 + z151 + z154 + z201 >= 1
z53 + z87 + z93 + z97 + z99 + z109 + z120 + z134 + z135 + z137 + z138 + z139 + z143 + z145 + z159 + z172 + z173 + z188 + z211 + z212 >= 1
z78 + z81 + z82 + z87 + z93 + z97 + z105 + z107 + z120 + z126 + z134 + z137 + z151 + z154 + z156 + z172 + z173 + z201 + z229 >= 1
z72 + z90 + z109 + z120 + z122 + z134 + z151 + z154 + z201 + z235 >= 1
z68 + z72 + z79 + z81 + z82 + z87 + z88 + z90 + z114 + z120 + z122 + z125 + z134 + z151 + z153 + z154 + z158 + z201 + z221 + z229 + z235 >= 1
z53 + z62 + z87 + z90 + z97 + z99 + z109 + z120 + z121 + z122 + z130 + z134 + z145 + z149 + z151 + z152 + z154 + z201 + z229 >= 1
z72 + z81 + z82 + z83 + z87 + z88 + z90 + z93 + z97 + z105 + z109 + z113 + z120 + z122 + z125 + z134 + z151 + z152 + z153 + z154 + z158 + z201 + z221 + z229 >= 1
z51 + z68 + z72 + z79 + z81 + z93 + z99 + z109 + z122 + z128 + z137 + z138 + z143 + z159 + z188 + z201 + z204 + z228 + z235 >= 1
z68 + z72 + z79 + z81 + z82 + z87 + z89 + z93 + z107 + z116 + z122 + z128 + z134 + z137 + z143 + z151 + z153 + z177 + z185 + z201 + z228 + z235 >= 1
z53 + z72 + z81 + z87 + z93 + z97 + z99 + z107 + z109 + z120 + z122 + z128 + z130 + z133 + z134 + z135 + z137 + z138 + z139 + z143 + z145 + z147 + z157 + z159 + z172 + z173 + z188 + z200 + z201 + z204 + z211 + z228 >= 1
z68 + z72 + z76 + z78 + z79 + z81 + z82 + z87 + z93 + z97 + z99 + z105 + z107 + z109 + z116 + z120 + z122 + z126 + z128 + z134 + z135 + z137 + z138 + z143 + z151 + z153 + z154 + z156 + z157 + z159 + z169 + z172 + z173 + z183 + z201 + z219 + z228 + z229 >= 1
z68 + z72 + z79 + z81 + z89 + z90 + z99 + z106 + z109 + z120 + z122 + z128 + z130 + z134 + z143 + z151 + z153 + z177 + z184 + z201 + z228 + z235 >= 1
z11 + z68 + z72 + z79 + z81 + z82 + z87 + z89 + z90 + z93 + z106 + z109 + z116 + z120 + z122 + z125 + z134 + z151 + z153 + z154 + z158 + z177 + z184 + z185 + z201 + z221 + z228 + z229 + z235 >= 1
z53 + z62 + z68 + z72 + z81 + z87 + z90 + z93 + z97 + z99 + z109 + z120 + z121 + z122 + z128 + z130 + z133 + z134 + z135 + z137 + z138 + z141 + z143 + z145 + z149 + z151 + z152 + z153 + z154 + z159 + z179 + z184 + z201 + z213 + z228 + z229 + z233 + z235 >= 1
z11 + z68 + z72 + z76 + z79 + z81 + z82 + z83 + z87 + z88 + z89 + z90 + z93 + z97 + z99 + z105 + z107 + z109 + z113 + z116 + z120 + z122 + z125 + z130 + z134 + z137 + z143 + z151 + z152 + z153 + z154 + z158 + z177 + z179 + z184 + z201 + z221 + z228 + z229 + z235 >= 1
z33 + z40 + z71 + z74 + z150 + z160 + z186 + z190 + z226 + z230 >= 1
z76 + z87 + z93 + z105 + z107 + z126 + z127 + z156 + z172 + z173 + z183 + z219 >= 1
z76 + z87 + z88 + z105 + z113 + z126 + z134 + z154 + z183 + z221 + z229 >= 1
z68 + z72 + z76 + z79 + z81 + z93 + z107 + z116 + z177 + z183 + z219 >= 1
z29 + z30 + z35 + z93 + z99 + z107 + z135 + z137 + z138 + z143 + z147 + z157 + z159 + z172 + z183 + z188 + z219 >= 1
z76 + z81 + z87 + z93 + z105 + z107 + z116 + z126 + z127 + z129 + z137 + z156 + z157 + z172 + z173 + z183 + z219 >= 1
z68 + z72 + z85 + z96 + z106 + z177 + z235 >= 1
z11 + z68 + z72 + z76 + z79 + z81 + z89 + z106 + z116 + z153 + z177 + z201 + z235 >= 1
z10 + z11 + z68 + z72 + z76 + z81 + z87 + z93 + z105 + z107 + z113 + z116 + z126 + z129 + z134 + z153 + z177 + z183 + z201 + z219 + z221 + z229 >= 1
z27 + z33 + z45 + z46 + z56 + z60 + z64 + z86 + z118 + z139 + z176 + z189 + z190 + z196 + z197 + z212 + z214 + z224 + z225 + z226 >= 1
z27 + z31 + z32 + z42 + z45 + z53 + z56 + z62 + z63 + z78 + z86 + z97 + z99 + z104 + z117 + z118 + z135 + z137 + z139 + z140 + z145 + z159 + z168 + z170 + z171 + z172 + z173 + z182 + z189 + z196 + z197 + z212 + z214 + z216 >= 1
z78 + z87 + z97 + z117 + z118 + z134 + z135 + z139 + z140 + z154 + z156 + z169 + z170 + z172 + z173 + z174 + z193 + z196 + z212 + z214 + z216 >= 1
z91 + z108 + z114 + z134 + z151 + z154 + z158 >= 1
z42 + z53 + z56 + z62 + z86 + z97 + z104 + z118 + z120 + z134 + z135 + z139 + z145 + z149 + z154 + z162 + z168 + z212 + z216 + z232 + z233 >= 1
z53 + z62 + z78 + z87 + z88 + z97 + z114 + z117 + z120 + z134 + z151 + z154 + z158 + z168 + z173 + z216 + z229 >= 1
z51 + z99 + z128 + z135 + z137 + z139 + z143 + z159 + z176 + z224 >= 1
z30 + z31 + z32 + z53 + z62 + z78 + z97 + z99 + z104 + z128 + z133 + z135 + z137 + z138 + z139 + z143 + z145 + z157 + z159 + z169 + z170 + z172 + z173 + z182 + z187 + z233 >= 1
z59 + z78 + z87 + z93 + z94 + z97 + z99 + z107 + z117 + z134 + z135 + z137 + z139 + z143 + z156 + z157 + z159 + z169 + z170 + z172 + z173 + z174 + z202 + z205 >= 1
z68 + z72 + z114 + z134 + z151 + z153 + z154 + z158 + z201 >= 1
z12 + z13 + z19 + z23 + z53 + z62 + z97 + z99 + z104 + z109 + z120 + z130 + z133 + z134 + z135 + z137 + z139 + z143 + z145 + z149 + z159 + z162 + z168 + z233 >= 1
z53 + z62 + z78 + z87 + z97 + z120 + z134 + z135 + z145 + z151 + z153 + z154 + z158 + z169 + z172 + z173 + z201 + z229 + z233 >= 1
z27 + z33 + z40 + z45 + z46 + z58 + z63 + z74 + z110 + z115 + z150 + z160 + z165 + z190 + z196 + z214 + z226 + z230 + z236 >= 1
z48 + z73 + z110 + z115 + z165 + z190 + z196 + z207 + z214 + z218 + z226 + z236 >= 1
z27 + z30 + z31 + z32 + z33 + z35 + z37 + z63 + z115 + z118 + z135 + z139 + z140 + z160 + z170 + z172 + z173 + z196 + z212 + z214 + z226 >= 1
z32 + z63 + z78 + z110 + z115 + z117 + z126 + z140 + z156 + z170 + z172 + z173 + z196 + z214 >= 1
z73 + z108 + z110 + z114 + z218 >= 1
z14 + z19 + z24 + z29 + z30 + z31 + z32 + z35 + z63 + z135 + z137 + z139 + z157 + z159 + z170 + z172 + z173 + z196 >= 1
z30 + z32 + z78 + z107 + z126 + z135 + z156 + z157 + z169 + z170 + z172 + z173 + z183 + z219 >= 1
z12 + z19 + z25 + z26 + z85 + z96 >= 1
z12 + z13 + z14 + z19 + z23 + z24 + z25 + z30 + z35 + z96 + z131 + z135 + z145 + z233 >= 1
z33 + z40 + z46 + z57 + z67 + z150 + z160 + z186 + z191 + z225 >= 1
z53 + z77 + z109 + z120 + z121 + z130 + z141 + z145 + z149 + z152 + z179 + z213 >= 1
z83 + z88 + z120 + z121 + z134 + z141 + z152 + z154 + z179 + z221 + z229 >= 1
z68 + z72 + z79 + z89 + z119 + z148 + z185 >= 1
z34 + z99 + z100 + z109 + z130 + z133 + z135 + z137 + z138 + z141 + z143 + z145 + z159 + z187 + z188 + z200 + z213 >= 1
z68 + z72 + z89 + z109 + z122 + z130 + z141 + z179 + z184 + z213 + z235 >= 1
z11 + z68 + z72 + z79 + z89 + z122 + z153 + z177 + z179 + z184 + z185 + z201 + z235 >= 1
z53 + z77 + z99 + z109 + z120 + z121 + z122 + z130 + z133 + z141 + z145 + z149 + z152 + z179 + z184 + z203 + z213 >= 1
z10 + z11 + z68 + z72 + z83 + z89 + z109 + z120 + z121 + z122 + z130 + z134 + z141 + z152 + z153 + z179 + z184 + z201 + z203 + z213 + z221 + z229 >= 1
z28 + z33 + z38 + z40 + z46 + z54 + z57 + z58 + z67 + z71 + z74 + z112 + z150 + z160 + z166 + z178 + z180 + z186 + z191 + z226 + z230 >= 1
z28 + z33 + z40 + z103 + z160 + z178 + z195 >= 1
z126 + z127 + z178 + z183 + z195 >= 1
z92 >= 1
z77 + z103 + z121 + z141 + z178 >= 1
z38 + z40 + z112 + z160 + z180 >= 1
z10 + z76 + z126 + z127 + z129 + z183 + z219 >= 1
z10 + z11 + z68 + z89 + z92 + z177 >= 1
z10 + z77 + z121 + z141 + z179 + z203 + z213 >= 1
z10 + z11 + z76 + z129 + z141 + z179 + z183 + z203 >= 1
z27 + z33 + z40 + z44 + z46 + z56 + z58 + z67 + z86 + z136 + z150 + z155 + z160 + z171 + z191 + z197 + z217 + z225 + z226 >= 1
z27 + z31 + z33 + z42 + z46 + z53 + z56 + z86 + z100 + z104 + z118 + z124 + z135 + z139 + z145 + z160 + z171 + z182 + z187 + z212 + z217 >= 1
z44 + z46 + z47 + z56 + z86 + z98 + z123 + z136 + z155 + z161 + z217 + z225 >= 1
z91 + z98 + z114 + z123 + z136 >= 1
z42 + z53 + z56 + z62 + z86 + z104 + z121 + z136 + z145 + z149 + z168 + z171 + z182 + z217 >= 1
z59 + z75 + z84 + z94 + z119 + z148 >= 1
z31 + z34 + z53 + z59 + z61 + z86 + z99 + z100 + z104 + z133 + z135 + z139 + z145 + z159 + z171 + z182 + z187 + z231 >= 1
z59 + z61 + z75 + z80 + z94 + z100 + z135 + z148 + z169 + z172 + z187 + z202 + z205 + z231 >= 1
z53 + z62 + z104 + z121 + z130 + z133 + z135 + z141 + z145 + z149 + z182 + z187 + z213 + z233 >= 1
z15 + z27 + z28 + z33 + z38 + z39 + z40 + z44 + z46 + z54 + z58 + z67 + z74 + z112 + z150 + z160 + z165 + z180 + z186 + z190 + z191 + z225 + z226 + z230 >= 1
z33 + z39 + z58 + z110 + z112 + z160 + z165 + z180 + z207 + z218 + z226 >= 1
z27 + z28 + z31 + z32 + z33 + z40 + z46 + z58 + z63 + z86 + z160 + z171 + z178 + z180 + z182 + z196 + z226 >= 1
z15 + z33 + z44 + z46 + z58 + z112 + z123 + z136 + z160 + z161 + z180 >= 1
z237 + z238 >= 1
z15 + z33 + z38 + z39 + z40 + z58 + z112 + z160 + z180 >= 1
z39 + z84 + z112 + z148 + z180 >= 1
z30 + z31 + z32 + z135 + z160 + z180 + z182 + z187 >= 1
z15 + z26 + z96 + z112 + z180 >= 1
z10 + z237 >= 1
z16 + z45 + z52 + z57 + z60 + z64 + z67 + z71 + z150 + z166 + z186 + z189 + z190 + z197 + z209 + z223 + z224 + z225 + z230 >= 1
z16 + z45 + z60 + z118 + z188 + z189 + z197 + z209 + z211 + z212 >= 1
z88 + z125 + z151 + z154 + z221 >= 1
z83 + z88 + z113 + z125 + z134 + z151 + z154 + z221 + z229 >= 1
z16 + z51 + z128 + z188 + z204 + z209 + z223 + z224 >= 1
z99 + z128 + z137 + z138 + z143 + z147 + z188 + z200 + z204 + z209 + z211 >= 1
z11 + z68 + z72 + z89 + z125 + z151 + z153 + z177 + z201 + z221 >= 1
z11 + z83 + z88 + z113 + z125 + z134 + z151 + z153 + z154 + z201 + z221 + z229 >= 1
z16 + z33 + z40 + z45 + z52 + z54 + z57 + z60 + z67 + z71 + z74 + z111 + z144 + z150 + z163 + z166 + z181 + z186 + z190 + z226 + z230 + z236 >= 1
z48 + z71 + z144 + z166 + z181 + z186 + z190 + z207 + z218 + z230 + z236 >= 1
z71 + z111 + z146 + z163 + z166 + z186 + z208 >= 1
z17 + z22 + z70 + z131 + z146 + z208 >= 1
z70 + z88 + z113 + z146 + z221 >= 1
z14 + z29 + z35 + z131 + z147 + z188 + z227 >= 1
z11 + z177 >= 1
z12 + z14 + z17 + z22 + z70 + z131 + z146 + z227 >= 1
z11 + z70 + z113 + z221 >= 1
z16 + z27 + z33 + z43 + z45 + z46 + z49 + z52 + z56 + z60 + z64 + z65 + z67 + z86 + z118 + z150 + z155 + z176 + z186 + z189 + z190 + z196 + z197 + z199 + z212 + z214 + z223 + z224 + z225 + z226 + z230 + z236 >= 1
z45 + z48 + z49 + z60 + z64 + z65 + z118 + z174 + z189 + z190 + z193 + z194 + z197 + z214 + z218 + z224 + z236 >= 1
z16 + z27 + z37 + z42 + z43 + z45 + z49 + z56 + z60 + z63 + z64 + z86 + z117 + z118 + z124 + z140 + z168 + z171 + z189 + z193 + z196 + z197 + z212 + z214 + z216 + z232 >= 1
z45 + z49 + z78 + z117 + z118 + z132 + z140 + z173 + z174 + z189 + z193 + z194 + z196 + z205 + z210 + z212 + z214 + z216 >= 1
z43 + z45 + z47 + z56 + z60 + z64 + z118 + z123 + z142 + z155 + z162 + z189 + z197 + z199 + z224 + z225 + z232 >= 1
z13 + z21 + z22 + z42 + z43 + z53 + z56 + z62 + z86 + z118 + z142 + z162 + z168 + z189 + z197 + z212 + z216 + z232 >= 1
z88 + z117 + z118 + z154 + z168 + z193 + z216 + z232 >= 1
z16 + z45 + z51 + z60 + z64 + z65 + z176 + z197 + z199 + z223 + z224 >= 1
z65 + z94 + z95 + z174 + z194 + z205 + z224 >= 1
z59 + z78 + z80 + z94 + z95 + z117 + z132 + z169 + z172 + z173 + z174 + z193 + z194 + z202 + z205 + z210 >= 1
z12 + z13 + z18 + z142 + z162 + z199 + z224 >= 1
z12 + z13 + z18 + z19 + z21 + z22 + z23 + z53 + z62 + z131 + z142 + z145 + z162 + z168 + z232 + z233 >= 1
z16 + z27 + z33 + z37 + z40 + z45 + z46 + z48 + z49 + z52 + z54 + z58 + z60 + z63 + z64 + z67 + z71 + z74 + z110 + z115 + z118 + z144 + z150 + z160 + z165 + z166 + z186 + z189 + z190 + z196 + z197 + z207 + z214 + z218 + z225 + z226 + z230 + z236 >= 1
z45 + z48 + z49 + z50 + z73 + z110 + z115 + z144 + z165 + z190 + z196 + z207 + z214 + z218 + z226 + z230 + z236 >= 1
z14 + z22 + z27 + z32 + z33 + z35 + z37 + z45 + z49 + z60 + z63 + z115 + z118 + z131 + z140 + z189 + z190 + z196 + z197 + z206 + z212 + z214 + z226 + z236 >= 1
z37 + z48 + z49 + z63 + z110 + z115 + z117 + z118 + z140 + z193 + z196 + z214 + z218 + z236 >= 1
z9 + z48 + z50 + z73 + z110 + z207 + z218 >= 1
z12 + z13 + z14 + z17 + z21 + z22 + z37 + z118 + z131 + z146 + z162 + z206 + z214 + z232 >= 1
z12 + z14 + z19 + z22 + z24 + z29 + z30 + z32 + z35 + z37 + z63 + z131 + z196 + z206 + z214 + z227 >= 1
z12 + z13 + z18 + z19 + z25 + z26 + z96 + z131 >= 1
z12 + z13 + z14 + z17 + z18 + z19 + z21 + z22 + z23 + z24 + z25 + z35 + z131 + z162 + z206 + z227 >= 1
z16 + z33 + z40 + z46 + z52 + z54 + z57 + z60 + z67 + z71 + z111 + z150 + z155 + z164 + z166 + z181 + z186 + z191 + z197 + z215 + z225 + z230 >= 1
z57 + z166 + z181 + z186 + z192 + z215 + z234 >= 1
z66 + z80 + z132 + z192 + z198 + z234 >= 1
z47 + z57 + z67 + z111 + z123 + z155 + z161 + z164 + z166 + z186 + z225 >= 1
z66 + z83 + z88 + z221 + z234 >= 1
z34 + z80 + z100 + z167 + z188 + z200 + z231 >= 1
z66 + z80 + z94 + z132 + z167 + z198 + z231 + z234 >= 1
z11 + z89 >= 1
z11 + z66 + z83 + z221 >= 1
z4 + z28 + z33 + z38 + z40 + z46 + z52 + z54 + z57 + z58 + z67 + z71 + z74 + z111 + z112 + z144 + z150 + z160 + z163 + z164 + z166 + z181 + z186 + z190 + z191 + z215 + z225 + z226 + z230 >= 1
z4 + z54 + z57 + z71 + z111 + z144 + z150 + z166 + z181 + z186 + z207 + z215 + z230 >= 1
z28 + z33 + z40 + z54 + z150 + z160 + z166 + z178 + z186 >= 1
z4 + z54 + z57 + z67 + z71 + z111 + z150 + z161 + z163 + z164 + z166 + z181 + z186 >= 1
z4 + z9 + z92 + z111 + z166 + z181 >= 1
z4 + z38 + z40 + z54 + z111 + z112 + z150 + z166 + z181 + z186 >= 1
z4 + z181 >= 1
z4 + z111 >= 1
z4 + z11 + z92 >= 1
z10 + z11 >= 1
z16 + z27 + z33 + z40 + z43 + z44 + z45 + z46 + z47 + z52 + z54 + z56 + z57 + z58 + z60 + z64 + z67 + z86 + z118 + z123 + z124 + z136 + z150 + z155 + z160 + z161 + z164 + z166 + z171 + z186 + z189 + z190 + z191 + z197 + z217 + z225 + z226 + z230 >= 1
z27 + z33 + z36 + z42 + z43 + z45 + z46 + z56 + z60 + z80 + z86 + z100 + z118 + z124 + z132 + z155 + z171 + z182 + z189 + z197 + z212 + z217 + z225 + z231 >= 1
z36 + z56 + z80 + z94 + z118 + z124 + z132 + z174 + z193 + z198 + z205 + z210 + z231 + z234 >= 1
z43 + z44 + z46 + z47 + z56 + z67 + z86 + z98 + z101 + z123 + z136 + z155 + z161 + z164 + z197 + z217 + z225 >= 1
z9 + z47 + z98 + z101 + z123 + z136 + z161 >= 1
z42 + z43 + z47 + z56 + z86 + z118 + z123 + z124 + z136 + z155 + z168 + z171 + z217 + z232 >= 1
z59 + z75 + z80 + z84 + z94 + z95 + z148 + z205 >= 1
z34 + z36 + z56 + z59 + z61 + z80 + z86 + z94 + z100 + z124 + z132 + z167 + z171 + z182 + z187 + z231 >= 1
z36 + z59 + z61 + z75 + z80 + z94 + z95 + z100 + z132 + z167 + z174 + z198 + z202 + z205 + z210 + z231 >= 1
z4 + z15 + z27 + z28 + z33 + z38 + z39 + z40 + z44 + z45 + z46 + z52 + z54 + z57 + z58 + z60 + z67 + z71 + z74 + z111 + z112 + z144 + z150 + z155 + z160 + z161 + z164 + z165 + z166 + z180 + z181 + z186 + z190 + z191 + z197 + z207 + z225 + z226 + z230 + z236 >= 1
z4 + z9 + z33 + z39 + z48 + z50 + z54 + z58 + z110 + z112 + z144 + z150 + z165 + z166 + z181 + z186 + z190 + z207 + z218 + z226 + z230 + z236 >= 1
z27 + z28 + z33 + z37 + z40 + z46 + z54 + z56 + z58 + z63 + z86 + z118 + z124 + z150 + z160 + z171 + z196 + z214 + z226 >= 1
z4 + z9 + z15 + z33 + z44 + z46 + z47 + z54 + z58 + z67 + z101 + z111 + z112 + z123 + z136 + z150 + z155 + z161 + z164 + z166 + z186 + z225 >= 1
z4 + z9 + z50 + z101 + z123 + z161 + z207 + z218 >= 1
z9 + z238 >= 1
z4 + z15 + z33 + z38 + z39 + z40 + z54 + z58 + z112 + z150 + z160 + z180 >= 1
z4 + z39 + z84 + z112 >= 1
z4 + z15 + z26 + z112 >= 1
z4 + z9 >= 1


Binary
z0
z1
z2
z3
z4
z5
z6
z7
z8
z9
z10
z11
z12
z13
z14
z15
z16
z17
z18
z19
z20
z21
z22
z23
z24
z25
z26
z27
z28
z29
z30
z31
z32
z33
z34
z35
z36
z37
z38
z39
z40
z41
z42
z43
z44
z45
z46
z47
z48
z49
z50
z51
z52
z53
z54
z55
z56
z57
z58
z59
z60
z61
z62
z63
z64
z65
z66
z67
z68
z69
z70
z71
z72
z73
z74
z75
z76
z77
z78
z79
z80
z81
z82
z83
z84
z85
z86
z87
z88
z89
z90
z91
z92
z93
z94
z95
z96
z97
z98
z99
z100
z101
z102
z103
z104
z105
z106
z107
z108
z109
z110
z111
z112
z113
z114
z115
z116
z117
z118
z119
z120
z121
z122
z123
z124
z125
z126
z127
z128
z129
z130
z131
z132
z133
z134
z135
z136
z137
z138
z139
z140
z141
z142
z143
z144
z145
z146
z147
z148
z149
z150
z151
z152
z153
z154
z155
z156
z157
z158
z159
z160
z161
z162
z163
z164
z165
z166
z167
z168
z169
z170
z171
z172
z173
z174
z175
z176
z177
z178
z179
z180
z181
z182
z183
z184
z185
z186
z187
z188
z189
z190
z191
z192
z193
z194
z195
z196
z197
z198
z199
z200
z201
z202
z203
z204
z205
z206
z207
z208
z209
z210
z211
z212
z213
z214
z215
z216
z217
z218
z219
z220
z221
z222
z223
z224
z225
z226
z227
z228
z229
z230
z231
z232
z233
z234
z235
z236
z237
z238
