MinimizeInequalities_First.sol
# Objective value = 21
z0 0
z1 0
z2 0
z3 0
z4 1
z5 0
z6 0
z7 0
z8 0
z9 0
z10 0
z11 1
z12 1
z13 0
z14 0
z15 0
z16 0
z17 0
z18 0
z19 0
z20 0
z21 0
z22 0
z23 0
z24 0
z25 0
z26 0
z27 0
z28 0
z29 0
z30 0
z31 0
z32 0
z33 0
z34 0
z35 0
z36 0
z37 0
z38 0
z39 0
z40 1
z41 0
z42 0
z43 0
z44 0
z45 1
z46 0
z47 0
z48 0
z49 0
z50 0
z51 0
z52 0
z53 0
z54 0
z55 0
z56 0
z57 0
z58 0
z59 0
z60 0
z61 0
z62 0
z63 0
z64 0
z65 0
z66 0
z67 0
z68 0
z69 0
z70 0
z71 0
z72 1
z73 0
z74 0
z75 0
z76 0
z77 0
z78 0
z79 0
z80 0
z81 0
z82 0
z83 0
z84 0
z85 0
z86 0
z87 0
z88 0
z89 0
z90 0
z91 0
z92 1
z93 0
z94 1
z95 0
z96 0
z97 0
z98 0
z99 0
z100 0
z101 0
z102 0
z103 0
z104 0
z105 0
z106 0
z107 0
z108 0
z109 0
z110 0
z111 0
z112 1
z113 0
z114 0
z115 0
z116 0
z117 0
z118 0
z119 0
z120 0
z121 1
z122 0
z123 1
z124 0
z125 0
z126 1
z127 0
z128 0
z129 0
z130 0
z131 0
z132 0
z133 0
z134 0
z135 1
z136 0
z137 0
z138 0
z139 0
z140 0
z141 0
z142 0
z143 0
z144 0
z145 0
z146 1
z147 0
z148 0
z149 0
z150 0
z151 0
z152 0
z153 0
z154 1
z155 0
z156 0
z157 0
z158 0
z159 0
z160 0
z161 0
z162 0
z163 0
z164 0
z165 0
z166 0
z167 0
z168 0
z169 0
z170 0
z171 0
z172 0
z173 0
z174 0
z175 0
z176 0
z177 0
z178 0
z179 0
z180 0
z181 0
z182 0
z183 0
z184 0
z185 0
z186 0
z187 0
z188 1
z189 0
z190 0
z191 0
z192 0
z193 0
z194 0
z195 0
z196 0
z197 1
z198 0
z199 0
z200 0
z201 0
z202 0
z203 0
z204 0
z205 0
z206 0
z207 0
z208 0
z209 0
z210 0
z211 0
z212 0
z213 0
z214 0
z215 0
z216 0
z217 0
z218 1
z219 0
z220 0
z221 0
z222 0
z223 0
z224 0
z225 0
z226 0
z227 0
z228 0
z229 0
z230 0
z231 0
z232 0
z233 0
z234 1
z235 0
z236 0
z237 1
z238 1
